Route #1: 1 52 27 16 35 21 26
Route #2: 47 39 4 42 41 45
Route #3: 25 53 6 24 15 7 37 29
Route #4: 18 10 8 17 44 14 51 28 46
Route #5: 40 5 12 9 38 22 50 23 43
Route #6: 19 2 30 54 34 31 20 55 11 33 49 3
Route #7: 13 36 32 48
Cost 728